%%% static parameters %%%
timespan = 1;
Fact = [4];
Distr1 = [15];
Distr2 = [30];
Clients_N = [300];
Demand_W = [15];
Lt0 = [4];
Lt1 = [4];
SS_ = [0.85];
DS_D = [8];
K = [200];
MA = [500];
%%% dynamic parameters %%%
lost_ratio_sales_ret_th = 0.9150149296756241;
lost_ratio_sales_ret_w = 40;
lost_ratio_sales_dis_th = 0.10798287869196;
lost_ratio_sales_dis_w = 10;
lost_ratio_sales_fac_th = 0.7761067026891745;
lost_ratio_sales_fac_w = 5;
stock_customer_MA_mean_relative_th = 0.30090062131903283;
stock_customer_MA_mean_relative_w = 37;
stock_distributor_MA_mean_relative_th = 0.6636564884051335;
stock_distributor_MA_mean_relative_w = 12;
stock_retailer_MA_mean_relative_th = 0.8727907092558121;
stock_retailer_MA_mean_relative_w = 33;
stock_factory_MA_mean_relative_th = 0.7629453668847614;
stock_factory_MA_mean_relative_w = 81;
